50
1 0 4
2 0 3
2 1 4
3 0 4
3 1 4
3 2 4
4 0 3
4 1 3
4 2 5
4 3 1
5 0 1
5 1 2
5 2 4
5 3 4
5 4 4
6 0 2
6 1 4
6 2 4
6 3 5
6 4 5
6 5 5
7 0 2
7 1 1
7 2 1
7 3 3
7 4 4
7 5 5
7 6 3
8 0 2
8 1 1
8 2 1
8 3 1
8 4 4
8 5 5
8 6 1
8 7 3
9 0 5
9 1 1
9 2 3
9 3 3
9 4 5
9 5 3
9 6 5
9 7 4
9 8 5
10 0 3
10 1 4
10 2 4
10 3 5
10 4 4
10 5 4
10 6 4
10 7 5
10 8 4
10 9 3
11 0 2
11 1 3
11 2 2
11 3 2
11 4 2
11 5 4
11 6 4
11 7 5
11 8 5
11 9 1
11 10 1
12 0 5
12 1 2
12 2 5
12 3 2
12 4 3
12 5 1
12 6 5
12 7 2
12 8 1
12 9 4
12 10 1
12 11 5
13 0 1
13 1 4
13 2 5
13 3 5
13 4 1
13 5 2
13 6 5
13 7 5
13 8 4
13 9 5
13 10 3
13 11 3
13 12 2
14 0 5
14 1 5
14 2 2
14 3 1
14 4 3
14 5 5
14 6 5
14 7 2
14 8 3
14 9 5
14 10 1
14 11 5
14 12 2
14 13 4
15 0 4
15 1 3
15 2 2
15 3 3
15 4 2
15 5 4
15 6 5
15 7 4
15 8 1
15 9 4
15 10 2
15 11 1
15 12 4
15 13 1
15 14 5
16 0 1
16 1 3
16 2 1
16 3 5
16 4 4
16 5 2
16 6 2
16 7 5
16 8 3
16 9 3
16 10 4
16 11 5
16 12 1
16 13 3
16 14 1
16 15 4
17 0 2
17 1 5
17 2 2
17 3 2
17 4 5
17 5 2
17 6 5
17 7 3
17 8 4
17 9 2
17 10 3
17 11 1
17 12 4
17 13 5
17 14 5
17 15 4
17 16 4
18 0 2
18 1 2
18 2 1
18 3 5
18 4 2
18 5 2
18 6 1
18 7 1
18 8 1
18 9 2
18 10 4
18 11 4
18 12 2
18 13 2
18 14 4
18 15 2
18 16 3
18 17 3
19 0 1
19 1 5
19 2 3
19 3 5
19 4 1
19 5 1
19 6 5
19 7 3
19 8 3
19 9 5
19 10 5
19 11 2
19 12 3
19 13 5
19 14 4
19 15 5
19 16 2
19 17 3
19 18 4
20 0 1
20 1 2
20 2 3
20 3 5
20 4 1
20 5 5
20 6 4
20 7 4
20 8 3
20 9 5
20 10 5
20 11 4
20 12 2
20 13 2
20 14 3
20 15 4
20 16 4
20 17 2
20 18 4
20 19 3
21 0 3
21 1 3
21 2 1
21 3 2
21 4 3
21 5 5
21 6 5
21 7 1
21 8 3
21 9 3
21 10 5
21 11 5
21 12 5
21 13 5
21 14 3
21 15 4
21 16 1
21 17 2
21 18 4
21 19 5
21 20 3
22 0 5
22 1 3
22 2 5
22 3 4
22 4 5
22 5 4
22 6 5
22 7 4
22 8 4
22 9 1
22 10 3
22 11 4
22 12 4
22 13 3
22 14 1
22 15 2
22 16 3
22 17 1
22 18 2
22 19 1
22 20 1
22 21 4
23 0 5
23 1 5
23 2 2
23 3 1
23 4 3
23 5 4
23 6 1
23 7 2
23 8 3
23 9 4
23 10 3
23 11 3
23 12 5
23 13 3
23 14 3
23 15 5
23 16 4
23 17 4
23 18 4
23 19 1
23 20 3
23 21 2
23 22 3
24 0 4
24 1 4
24 2 4
24 3 5
24 4 5
24 5 5
24 6 4
24 7 4
24 8 3
24 9 1
24 10 1
24 11 2
24 12 3
24 13 3
24 14 4
24 15 3
24 16 2
24 17 3
24 18 3
24 19 5
24 20 5
24 21 3
24 22 5
24 23 2
25 0 2
25 1 4
25 2 4
25 3 2
25 4 5
25 5 4
25 6 5
25 7 1
25 8 2
25 9 2
25 10 3
25 11 3
25 12 1
25 13 4
25 14 5
25 15 4
25 16 2
25 17 4
25 18 5
25 19 1
25 20 4
25 21 3
25 22 5
25 23 4
25 24 5
26 0 2
26 1 1
26 2 3
26 3 2
26 4 3
26 5 4
26 6 1
26 7 4
26 8 1
26 9 1
26 10 4
26 11 4
26 12 2
26 13 2
26 14 4
26 15 4
26 16 4
26 17 1
26 18 4
26 19 2
26 20 2
26 21 4
26 22 4
26 23 1
26 24 1
26 25 2
27 0 3
27 1 3
27 2 1
27 3 3
27 4 2
27 5 2
27 6 3
27 7 2
27 8 4
27 9 2
27 10 2
27 11 5
27 12 3
27 13 2
27 14 3
27 15 3
27 16 3
27 17 3
27 18 1
27 19 5
27 20 2
27 21 1
27 22 1
27 23 4
27 24 1
27 25 4
27 26 5
28 0 5
28 1 1
28 2 2
28 3 2
28 4 4
28 5 3
28 6 4
28 7 5
28 8 1
28 9 4
28 10 1
28 11 2
28 12 1
28 13 1
28 14 4
28 15 3
28 16 5
28 17 5
28 18 3
28 19 4
28 20 2
28 21 3
28 22 5
28 23 3
28 24 2
28 25 2
28 26 4
28 27 1
29 0 4
29 1 1
29 2 1
29 3 1
29 4 3
29 5 3
29 6 4
29 7 1
29 8 5
29 9 5
29 10 5
29 11 1
29 12 3
29 13 5
29 14 3
29 15 2
29 16 3
29 17 2
29 18 3
29 19 2
29 20 1
29 21 1
29 22 5
29 23 1
29 24 5
29 25 2
29 26 2
29 27 1
29 28 1
30 0 5
30 1 5
30 2 3
30 3 2
30 4 4
30 5 5
30 6 2
30 7 4
30 8 1
30 9 1
30 10 3
30 11 5
30 12 3
30 13 3
30 14 4
30 15 5
30 16 2
30 17 2
30 18 3
30 19 5
30 20 4
30 21 4
30 22 5
30 23 2
30 24 4
30 25 4
30 26 1
30 27 4
30 28 3
30 29 4
31 0 2
31 1 1
31 2 5
31 3 5
31 4 3
31 5 4
31 6 2
31 7 2
31 8 1
31 9 2
31 10 2
31 11 3
31 12 2
31 13 5
31 14 1
31 15 4
31 16 2
31 17 1
31 18 2
31 19 1
31 20 4
31 21 3
31 22 1
31 23 4
31 24 4
31 25 5
31 26 5
31 27 2
31 28 5
31 29 5
31 30 1
32 0 5
32 1 3
32 2 1
32 3 4
32 4 3
32 5 1
32 6 3
32 7 2
32 8 5
32 9 2
32 10 2
32 11 2
32 12 1
32 13 5
32 14 5
32 15 3
32 16 5
32 17 4
32 18 1
32 19 1
32 20 2
32 21 4
32 22 5
32 23 2
32 24 4
32 25 1
32 26 1
32 27 3
32 28 1
32 29 1
32 30 1
32 31 5
33 0 2
33 1 2
33 2 3
33 3 5
33 4 2
33 5 3
33 6 2
33 7 4
33 8 3
33 9 4
33 10 1
33 11 4
33 12 3
33 13 5
33 14 1
33 15 1
33 16 3
33 17 3
33 18 4
33 19 3
33 20 1
33 21 2
33 22 2
33 23 1
33 24 5
33 25 1
33 26 4
33 27 2
33 28 3
33 29 2
33 30 3
33 31 1
33 32 3
34 0 4
34 1 5
34 2 5
34 3 4
34 4 4
34 5 1
34 6 3
34 7 4
34 8 5
34 9 3
34 10 4
34 11 5
34 12 4
34 13 4
34 14 3
34 15 1
34 16 4
34 17 1
34 18 4
34 19 4
34 20 5
34 21 5
34 22 4
34 23 5
34 24 5
34 25 2
34 26 5
34 27 5
34 28 5
34 29 2
34 30 1
34 31 3
34 32 2
34 33 1
35 0 5
35 1 1
35 2 4
35 3 3
35 4 1
35 5 5
35 6 3
35 7 1
35 8 5
35 9 2
35 10 5
35 11 3
35 12 2
35 13 5
35 14 5
35 15 4
35 16 5
35 17 4
35 18 4
35 19 5
35 20 5
35 21 2
35 22 5
35 23 2
35 24 5
35 25 4
35 26 2
35 27 3
35 28 3
35 29 5
35 30 1
35 31 3
35 32 3
35 33 5
35 34 5
36 0 2
36 1 5
36 2 1
36 3 5
36 4 1
36 5 1
36 6 1
36 7 2
36 8 2
36 9 1
36 10 3
36 11 2
36 12 5
36 13 4
36 14 1
36 15 3
36 16 1
36 17 4
36 18 2
36 19 4
36 20 1
36 21 2
36 22 3
36 23 4
36 24 3
36 25 5
36 26 3
36 27 2
36 28 4
36 29 3
36 30 2
36 31 3
36 32 2
36 33 2
36 34 4
36 35 1
37 0 1
37 1 2
37 2 4
37 3 3
37 4 4
37 5 3
37 6 5
37 7 5
37 8 3
37 9 1
37 10 4
37 11 3
37 12 3
37 13 5
37 14 3
37 15 5
37 16 1
37 17 3
37 18 3
37 19 1
37 20 1
37 21 4
37 22 2
37 23 3
37 24 5
37 25 2
37 26 5
37 27 3
37 28 2
37 29 3
37 30 4
37 31 5
37 32 2
37 33 2
37 34 2
37 35 1
37 36 2
38 0 5
38 1 1
38 2 1
38 3 3
38 4 1
38 5 5
38 6 2
38 7 2
38 8 3
38 9 5
38 10 5
38 11 5
38 12 5
38 13 2
38 14 4
38 15 1
38 16 3
38 17 4
38 18 3
38 19 5
38 20 3
38 21 3
38 22 4
38 23 1
38 24 1
38 25 3
38 26 1
38 27 3
38 28 3
38 29 1
38 30 3
38 31 3
38 32 2
38 33 5
38 34 3
38 35 1
38 36 1
38 37 2
39 0 1
39 1 2
39 2 2
39 3 1
39 4 3
39 5 4
39 6 3
39 7 1
39 8 3
39 9 1
39 10 3
39 11 5
39 12 4
39 13 3
39 14 2
39 15 5
39 16 5
39 17 3
39 18 2
39 19 3
39 20 3
39 21 3
39 22 2
39 23 1
39 24 5
39 25 5
39 26 5
39 27 4
39 28 4
39 29 2
39 30 1
39 31 1
39 32 4
39 33 1
39 34 4
39 35 1
39 36 3
39 37 4
39 38 4
40 0 3
40 1 5
40 2 1
40 3 4
40 4 1
40 5 5
40 6 3
40 7 4
40 8 4
40 9 4
40 10 4
40 11 5
40 12 4
40 13 4
40 14 5
40 15 5
40 16 4
40 17 4
40 18 4
40 19 4
40 20 4
40 21 5
40 22 4
40 23 2
40 24 2
40 25 3
40 26 5
40 27 3
40 28 1
40 29 4
40 30 5
40 31 1
40 32 1
40 33 2
40 34 3
40 35 2
40 36 2
40 37 3
40 38 5
40 39 1
41 0 3
41 1 2
41 2 3
41 3 4
41 4 5
41 5 4
41 6 5
41 7 2
41 8 1
41 9 2
41 10 2
41 11 3
41 12 1
41 13 2
41 14 4
41 15 3
41 16 3
41 17 1
41 18 5
41 19 4
41 20 3
41 21 1
41 22 4
41 23 4
41 24 1
41 25 4
41 26 3
41 27 4
41 28 1
41 29 1
41 30 5
41 31 4
41 32 2
41 33 1
41 34 4
41 35 2
41 36 4
41 37 4
41 38 1
41 39 3
41 40 5
42 0 1
42 1 2
42 2 5
42 3 5
42 4 5
42 5 3
42 6 2
42 7 4
42 8 2
42 9 1
42 10 3
42 11 1
42 12 5
42 13 1
42 14 4
42 15 4
42 16 5
42 17 1
42 18 5
42 19 2
42 20 1
42 21 4
42 22 1
42 23 2
42 24 3
42 25 5
42 26 2
42 27 5
42 28 4
42 29 5
42 30 3
42 31 1
42 32 2
42 33 3
42 34 5
42 35 1
42 36 3
42 37 5
42 38 5
42 39 1
42 40 2
42 41 5
43 0 1
43 1 2
43 2 4
43 3 4
43 4 5
43 5 4
43 6 1
43 7 4
43 8 3
43 9 4
43 10 3
43 11 1
43 12 4
43 13 5
43 14 1
43 15 5
43 16 4
43 17 5
43 18 5
43 19 1
43 20 4
43 21 5
43 22 4
43 23 4
43 24 1
43 25 2
43 26 5
43 27 5
43 28 1
43 29 4
43 30 2
43 31 5
43 32 4
43 33 3
43 34 1
43 35 1
43 36 4
43 37 5
43 38 5
43 39 2
43 40 5
43 41 5
43 42 1
44 0 2
44 1 5
44 2 1
44 3 4
44 4 4
44 5 4
44 6 2
44 7 1
44 8 1
44 9 3
44 10 4
44 11 4
44 12 5
44 13 3
44 14 3
44 15 2
44 16 3
44 17 1
44 18 2
44 19 2
44 20 3
44 21 1
44 22 2
44 23 5
44 24 3
44 25 1
44 26 4
44 27 2
44 28 1
44 29 5
44 30 5
44 31 1
44 32 3
44 33 4
44 34 5
44 35 2
44 36 2
44 37 2
44 38 2
44 39 5
44 40 3
44 41 3
44 42 1
44 43 2
45 0 2
45 1 5
45 2 2
45 3 5
45 4 5
45 5 1
45 6 1
45 7 3
45 8 1
45 9 1
45 10 2
45 11 4
45 12 5
45 13 2
45 14 1
45 15 4
45 16 4
45 17 2
45 18 3
45 19 2
45 20 1
45 21 2
45 22 2
45 23 1
45 24 3
45 25 4
45 26 4
45 27 4
45 28 3
45 29 1
45 30 3
45 31 2
45 32 2
45 33 2
45 34 1
45 35 5
45 36 1
45 37 5
45 38 2
45 39 3
45 40 4
45 41 1
45 42 3
45 43 5
45 44 4
46 0 2
46 1 3
46 2 1
46 3 3
46 4 4
46 5 2
46 6 3
46 7 5
46 8 3
46 9 4
46 10 1
46 11 2
46 12 1
46 13 1
46 14 1
46 15 5
46 16 2
46 17 3
46 18 3
46 19 1
46 20 3
46 21 1
46 22 2
46 23 4
46 24 4
46 25 2
46 26 5
46 27 4
46 28 5
46 29 1
46 30 5
46 31 5
46 32 4
46 33 3
46 34 1
46 35 3
46 36 1
46 37 4
46 38 5
46 39 1
46 40 4
46 41 1
46 42 3
46 43 4
46 44 1
46 45 2
47 0 3
47 1 2
47 2 2
47 3 3
47 4 3
47 5 4
47 6 4
47 7 4
47 8 2
47 9 2
47 10 5
47 11 4
47 12 5
47 13 2
47 14 3
47 15 3
47 16 3
47 17 4
47 18 1
47 19 1
47 20 5
47 21 3
47 22 4
47 23 1
47 24 1
47 25 4
47 26 3
47 27 3
47 28 5
47 29 5
47 30 2
47 31 5
47 32 3
47 33 2
47 34 5
47 35 1
47 36 2
47 37 1
47 38 3
47 39 5
47 40 2
47 41 1
47 42 5
47 43 5
47 44 1
47 45 1
47 46 1
48 0 4
48 1 2
48 2 5
48 3 1
48 4 3
48 5 1
48 6 5
48 7 3
48 8 1
48 9 1
48 10 2
48 11 1
48 12 2
48 13 1
48 14 3
48 15 4
48 16 2
48 17 5
48 18 5
48 19 2
48 20 1
48 21 3
48 22 5
48 23 5
48 24 2
48 25 4
48 26 4
48 27 5
48 28 1
48 29 3
48 30 3
48 31 1
48 32 2
48 33 5
48 34 1
48 35 2
48 36 5
48 37 3
48 38 2
48 39 2
48 40 3
48 41 5
48 42 5
48 43 4
48 44 1
48 45 5
48 46 2
48 47 4
49 0 5
49 1 5
49 2 1
49 3 1
49 4 4
49 5 1
49 6 4
49 7 1
49 8 4
49 9 5
49 10 1
49 11 5
49 12 3
49 13 3
49 14 4
49 15 5
49 16 2
49 17 5
49 18 1
49 19 2
49 20 5
49 21 5
49 22 4
49 23 1
49 24 4
49 25 3
49 26 2
49 27 3
49 28 3
49 29 3
49 30 5
49 31 2
49 32 1
49 33 4
49 34 1
49 35 2
49 36 2
49 37 4
49 38 4
49 39 3
49 40 3
49 41 4
49 42 2
49 43 4
49 44 3
49 45 4
49 46 5
49 47 4
49 48 2
